WARNING: for repeatability, setting FPU to use double precision
============================[ Problem Statistics ]=============================
|                                                                             |
|  Number of variables:           689                                         |
|  Number of clauses:           16922                                         |
|  Parse time:                   0.01 s                                       |
|                                                                             |
c ============================[ Search Statistics ]==============================
c | Conflicts |          ORIGINAL         |          LEARNT          | Progress |
c |           |    Vars  Clauses Literals |    Limit  Clauses Lit/Cl |          |
c ===============================================================================
c Switched to VSIDS.
c ===============================================================================
restarts                  : 998
conflicts                 : 525637         (4131 /sec)
decisions                 : 852831         (0.00 % random) (6702 /sec)
propagations              : 52048691       (409042 /sec)
conflict literals         : 13715130       (34.28 % deleted)

conflicts w/ DIP found    : 190329         (36.21 % of conflicts)
conflicts w/ dangerous DIP: 0              (0.00 % of conflicts)
conflicts w/ DIP-learning : 528            (0.10 % of conflicts)
decisions on ext vars     : 140            (0.02 % of decisions)
total ext vars            : 121         
tried delete ext vars     : 66          
deleted ext vars          : 66          
max ext vars              : 67          

Memory used               : 51.00 MB
CPU time                  : 127.245 s
DIP computation time      : 4.62277 s (3.63 % of total time)
ER_sel time               : 0.507821 s
ER_add time               : 0.00044 s
ER_delC time              : 0 s
ER_delV time              : 0.024583 s
ER_sub time               : 0.676059 s
ER_stat time              : 0 s

SATISFIABLE
